p cnf 274 24
-53 -183 -199 -826 -885 -943 -1048 -1274 -1305 -1440 -1974 -2157 -2378 -2489 -2698 -2726 -2849 -2970 -2984 -3169 -3172 -3183 -3184 -3226 -3355 -3396 -3499 -3722 -3753 -3879 -4249 -4274 -4310 -4357 -4358 -4370 -4390 -4501 -4710 -4738 -4861 -5047 -5048 -5049 -5056 -5171 -5634 -5635 -5645 -5646 -5666 -5729 -5765 -5789 -5828 -5938 -6028 -6044 -6045 -6046 -6056 -6091 -6132 -6268 -6379 -6380 -6381 -6395 -6509 -6559 -6653 -6756 -6979 -7010 -7136 -7307 -7390 -7461 -7587 -7677 -7787 -7835 -7994 -8122 -8208 -8242 -8245 0
-53 -183 -199 -826 -885 -943 -1048 -1274 -1305 -1440 -1974 -2157 -2260 -2378 -2489 -2698 -2726 -2849 -2970 -2984 -3169 -3172 -3183 -3184 -3226 -3355 -3396 -3499 -3722 -3753 -3879 -4249 -4274 -4310 -4357 -4358 -4370 -4390 -4501 -4710 -4738 -4861 -5047 -5048 -5049 -5056 -5171 -5634 -5635 -5645 -5646 -5666 -5729 -5765 -5789 -5828 -5938 -6028 -6044 -6045 -6046 -6056 -6091 -6132 -6268 -6379 -6380 -6381 -6395 -6509 -6559 -6653 -6756 -6979 -7010 -7136 -7307 -7390 -7461 -7587 -7677 -7787 -7835 -7994 -8122 -8208 -8245 0
-3 -5 -33 -34 -39 -51 -52 -113 -129 -132 -149 -173 -174 -175 -177 -179 -186 -187 -199 -200 -220 -338 -561 -590 -725 -1546 -1630 -1781 -1881 -1974 -2211 -2222 -2224 -2244 -2245 -2246 -2248 -2250 -2260 -2957 -2968 -2969 -2972 -2983 -3140 -3159 -3166 -3167 -3173 -3175 -3396 -3499 -3722 -3753 -3879 -4320 -4330 -4352 -4360 -4364 -5003 -5005 -5008 -5009 -5035 -5036 -5039 -5040 -5049 -5600 -5604 -5607 -5630 -5632 -5639 -5997 -5998 -6000 -6005 -6007 -6009 -6027 -6031 -6056 -6091 -6268 -6347 -6364 -6376 -6377 -6379 -6380 -6383 -6384 -8209 -8211 -8215 -8229 -8234 -8235 -8237 0
-3 -5 -33 -34 -39 -51 -52 -113 -129 -132 -149 -173 -174 -175 -177 -179 -186 -187 -199 -200 -220 -338 -561 -590 -725 -1546 -1630 -1781 -1881 -1974 -2211 -2222 -2224 -2244 -2245 -2246 -2248 -2250 -2260 -2957 -2968 -2969 -2972 -2974 -2983 -3140 -3159 -3166 -3167 -3173 -3175 -3396 -3499 -3722 -3753 -3879 -4320 -4330 -4352 -4360 -4364 -5003 -5005 -5008 -5035 -5036 -5039 -5040 -5049 -5600 -5604 -5607 -5630 -5632 -5639 -5997 -5998 -6000 -6005 -6007 -6009 -6027 -6031 -6033 -6056 -6091 -6268 -6347 -6364 -6376 -6377 -6379 -6380 -6383 -6384 -8209 -8211 -8215 -8229 -8234 -8235 -8237 0
-3 -5 -33 -34 -39 -51 -52 -113 -121 -129 -132 -149 -173 -174 -175 -177 -186 -187 -199 -200 -220 -338 -561 -590 -725 -1546 -1630 -1781 -1881 -1974 -2211 -2222 -2224 -2244 -2245 -2246 -2248 -2260 -2946 -2957 -2968 -2969 -2972 -2974 -2983 -3140 -3159 -3166 -3167 -3173 -3175 -3396 -3499 -3722 -3753 -3879 -4320 -4330 -4352 -4360 -4364 -5003 -5005 -5008 -5035 -5036 -5040 -5049 -5600 -5602 -5604 -5607 -5630 -5632 -5639 -5997 -5998 -6000 -6005 -6007 -6009 -6027 -6031 -6033 -6056 -6091 -6268 -6347 -6364 -6376 -6377 -6379 -6380 -6383 -6384 -8209 -8211 -8215 -8229 -8234 -8235 -8237 0
-3 -5 -33 -34 -39 -45 -51 -52 -106 -113 -119 -121 -129 -130 -132 -149 -173 -174 -177 -186 -187 -192 -199 -200 -220 -338 -561 -590 -725 -826 -885 -1546 -1630 -1781 -1881 -1974 -2211 -2215 -2222 -2224 -2244 -2245 -2248 -2260 -2942 -2957 -2967 -2968 -2969 -2974 -2975 -2983 -3138 -3140 -3159 -3166 -3167 -3173 -3175 -3396 -3499 -3722 -3753 -3879 -4320 -4321 -4330 -4342 -4352 -4360 -4364 -5008 -5035 -5036 -5040 -5049 -5600 -5602 -5604 -5607 -5631 -5632 -5633 -5639 -5765 -5789 -5828 -5997 -5998 -6000 -6005 -6007 -6009 -6027 -6031 -6033 -6056 -6091 -6268 -6347 -6364 -6374 -6379 -6380 -6383 -6384 -8209 -8211 -8215 -8224 -8229 -8234 -8235 0
-3 -5 -33 -34 -39 -45 -51 -106 -113 -119 -121 -129 -130 -132 -149 -173 -174 -177 -186 -187 -192 -199 -220 -338 -561 -590 -725 -826 -885 -1974 -2211 -2215 -2222 -2224 -2244 -2245 -2248 -2260 -2942 -2957 -2967 -2968 -2969 -2974 -2975 -3138 -3140 -3159 -3166 -3167 -3172 -3173 -3175 -3396 -3499 -3722 -3753 -3879 -4320 -4321 -4330 -4342 -4352 -4357 -4360 -4364 -5008 -5035 -5036 -5040 -5049 -5600 -5602 -5604 -5631 -5632 -5633 -5639 -5765 -5789 -5828 -5997 -5998 -6000 -6005 -6007 -6027 -6031 -6033 -6056 -6091 -6268 -6347 -6364 -6374 -6379 -6380 -6383 -6384 -8209 -8211 -8215 -8224 -8235 0
-3 -5 -33 -34 -39 -45 -51 -106 -113 -119 -121 -129 -130 -132 -149 -173 -174 -177 -186 -187 -192 -199 -220 -338 -561 -590 -725 -826 -885 -1974 -2211 -2215 -2222 -2224 -2244 -2245 -2248 -2260 -2942 -2967 -2968 -2969 -2974 -2975 -3138 -3140 -3166 -3167 -3172 -3173 -3175 -3396 -3499 -3722 -3753 -3879 -4320 -4321 -4330 -4352 -4357 -4360 -4364 -5008 -5035 -5036 -5040 -5049 -5600 -5602 -5604 -5631 -5632 -5633 -5639 -5765 -5789 -5828 -5997 -5998 -6000 -6005 -6007 -6027 -6031 -6033 -6056 -6091 -6132 -6268 -6347 -6374 -6379 -6380 -6383 -6384 -8209 -8211 -8215 -8235 0
-3 -5 -33 -34 -39 -45 -51 -106 -113 -119 -121 -129 -130 -132 -174 -177 -186 -187 -192 -199 -220 -338 -561 -590 -725 -826 -885 -1974 -2211 -2215 -2222 -2224 -2245 -2248 -2260 -2942 -2969 -2974 -2975 -3138 -3140 -3172 -3173 -3175 -3396 -3499 -3722 -3753 -3879 -4320 -4321 -4330 -4352 -4357 -4360 -4364 -5008 -5036 -5040 -5049 -5600 -5602 -5604 -5631 -5632 -5633 -5639 -5765 -5789 -5828 -5997 -5998 -6000 -6005 -6007 -6027 -6031 -6033 -6056 -6091 -6132 -6268 -6347 -6374 -6379 -6380 -6383 -6384 -7307 -8209 -8211 -8215 -8235 0
-3 -5 -33 -34 -39 -45 -51 -106 -113 -119 -129 -130 -132 -174 -177 -179 -186 -187 -192 -199 -220 -338 -561 -590 -725 -826 -885 -1974 -2211 -2215 -2222 -2224 -2245 -2248 -2250 -2260 -2942 -2969 -2974 -2975 -3138 -3140 -3172 -3173 -3175 -3396 -3499 -3722 -3753 -3879 -4320 -4321 -4330 -4352 -4357 -4360 -4364 -5008 -5036 -5039 -5040 -5049 -5600 -5604 -5631 -5632 -5633 -5639 -5765 -5789 -5828 -5997 -5998 -6000 -6005 -6007 -6027 -6031 -6033 -6056 -6091 -6132 -6268 -6347 -6374 -6379 -6380 -6383 -6384 -7307 -8209 -8211 -8215 -8235 0
-3 -5 -33 -34 -39 -45 -51 -106 -113 -118 -119 -129 -130 -132 -135 -177 -179 -186 -187 -192 -199 -220 -338 -561 -590 -725 -826 -885 -1974 -2157 -2211 -2215 -2222 -2224 -2225 -2248 -2250 -2260 -2942 -2969 -2974 -2975 -3138 -3140 -3172 -3173 -3175 -3396 -3499 -3722 -3753 -3879 -4320 -4321 -4330 -4352 -4357 -4360 -4364 -5008 -5036 -5039 -5040 -5049 -5600 -5604 -5631 -5632 -5633 -5639 -5765 -5789 -5828 -5997 -5998 -6000 -6005 -6006 -6007 -6027 -6031 -6033 -6056 -6091 -6132 -6268 -6347 -6379 -6380 -6383 -6384 -7307 -8209 -8211 -8215 -8235 0
-3 -33 -34 -39 -45 -51 -106 -113 -114 -118 -119 -122 -129 -130 -132 -177 -179 -186 -187 -192 -199 -220 -338 -561 -590 -725 -826 -885 -1974 -2157 -2211 -2212 -2215 -2222 -2224 -2248 -2250 -2260 -2942 -2949 -2969 -2974 -2975 -3138 -3140 -3143 -3168 -3170 -3172 -3173 -3175 -3396 -3499 -3722 -3753 -3879 -4320 -4321 -4323 -4330 -4351 -4352 -4354 -4357 -4360 -4364 -5008 -5036 -5038 -5039 -5040 -5049 -5466 -5600 -5604 -5608 -5629 -5631 -5632 -5633 -5635 -5638 -5639 -5765 -5789 -5828 -6000 -6005 -6006 -6007 -6027 -6031 -6033 -6034 -6056 -6091 -6132 -6268 -6347 -6378 -6379 -6383 -6384 -6389 -7307 -8209 -8211 -8215 -8235 0
-3 -33 -34 -39 -45 -51 -106 -113 -114 -118 -119 -122 -129 -130 -132 -177 -179 -186 -187 -192 -199 -220 -338 -561 -590 -725 -826 -885 -1974 -2157 -2211 -2212 -2215 -2222 -2224 -2248 -2250 -2260 -2942 -2949 -2969 -2974 -2975 -3138 -3140 -3143 -3170 -3172 -3173 -3175 -3396 -3499 -3722 -3753 -3879 -4320 -4321 -4323 -4330 -4351 -4352 -4354 -4357 -4360 -4364 -5008 -5036 -5038 -5039 -5040 -5049 -5056 -5171 -5466 -5600 -5604 -5608 -5631 -5632 -5633 -5635 -5638 -5639 -5765 -5789 -5828 -6000 -6005 -6006 -6007 -6027 -6031 -6033 -6034 -6056 -6091 -6132 -6268 -6347 -6378 -6379 -6383 -6384 -6389 -7307 -8209 -8211 -8215 -8235 0
-3 -14 -31 -33 -34 -35 -37 -39 -45 -51 -106 -113 -118 -119 -122 -129 -177 -179 -180 -181 -182 -186 -187 -192 -220 -338 -561 -590 -725 -826 -885 -1974 -2157 -2211 -2215 -2222 -2248 -2250 -2251 -2252 -2253 -2942 -2949 -2973 -2974 -2975 -3138 -3143 -3170 -3172 -3173 -3184 -3396 -3499 -3722 -3753 -3879 -4320 -4321 -4330 -4350 -4351 -4352 -4354 -4357 -4360 -4364 -5006 -5008 -5036 -5038 -5039 -5040 -5049 -5056 -5171 -5466 -5600 -5608 -5631 -5632 -5633 -5635 -5636 -5638 -5639 -5765 -5789 -5828 -6000 -6004 -6005 -6006 -6008 -6027 -6029 -6031 -6033 -6034 -6046 -6056 -6091 -6132 -6268 -6347 -6378 -6379 -6383 -6384 -6389 -6395 -6509 -6559 -7307 -8209 -8211 -8215 -8218 -8235 -8248 0
-3 -14 -31 -33 -34 -35 -37 -39 -45 -51 -106 -113 -118 -119 -122 -129 -177 -179 -181 -182 -186 -187 -192 -220 -338 -561 -590 -725 -826 -885 -1974 -2157 -2211 -2215 -2222 -2248 -2250 -2252 -2253 -2942 -2949 -2973 -2974 -2975 -3138 -3143 -3170 -3172 -3173 -3184 -3396 -3499 -3722 -3753 -3879 -4320 -4321 -4330 -4350 -4351 -4352 -4354 -4357 -4360 -4364 -5006 -5008 -5036 -5038 -5039 -5040 -5049 -5056 -5171 -5466 -5600 -5608 -5631 -5632 -5633 -5635 -5636 -5638 -5639 -5765 -5789 -5828 -5999 -6000 -6004 -6005 -6006 -6008 -6027 -6029 -6031 -6033 -6034 -6046 -6056 -6091 -6132 -6268 -6347 -6378 -6379 -6383 -6384 -6389 -6395 -6509 -6559 -7307 -8209 -8211 -8215 -8218 -8235 -8248 0
-3 -31 -33 -34 -35 -37 -39 -45 -51 -106 -113 -118 -119 -122 -129 -177 -179 -181 -182 -186 -187 -192 -220 -338 -561 -590 -725 -826 -885 -1974 -2157 -2211 -2215 -2222 -2248 -2250 -2252 -2253 -2942 -2949 -2970 -2973 -2974 -2975 -3138 -3143 -3170 -3172 -3173 -3184 -3396 -3499 -3722 -3753 -3879 -4320 -4321 -4330 -4350 -4351 -4352 -4354 -4357 -4360 -4364 -5006 -5008 -5036 -5038 -5039 -5040 -5049 -5056 -5171 -5466 -5600 -5608 -5631 -5632 -5633 -5635 -5636 -5638 -5639 -5765 -5789 -5828 -5999 -6000 -6006 -6008 -6027 -6029 -6031 -6033 -6034 -6046 -6056 -6091 -6132 -6268 -6347 -6378 -6379 -6383 -6384 -6389 -6395 -6509 -6559 -6653 -6756 -6979 -7010 -7136 -7307 -8209 -8211 -8214 -8215 -8218 -8235 -8248 0
-3 -33 -34 -35 -37 -39 -45 -51 -106 -113 -118 -119 -122 -129 -177 -179 -181 -182 -186 -187 -192 -220 -338 -561 -590 -725 -826 -885 -1974 -2157 -2211 -2215 -2222 -2248 -2250 -2252 -2253 -2942 -2949 -2970 -2973 -2974 -2975 -3138 -3143 -3170 -3172 -3173 -3184 -3396 -3499 -3722 -3753 -3879 -4249 -4320 -4321 -4328 -4330 -4352 -4354 -4357 -4360 -4364 -5006 -5007 -5008 -5038 -5039 -5040 -5049 -5056 -5171 -5466 -5600 -5608 -5631 -5632 -5633 -5635 -5636 -5638 -5639 -5765 -5789 -5828 -5999 -6000 -6006 -6008 -6029 -6031 -6033 -6034 -6046 -6056 -6091 -6132 -6268 -6347 -6378 -6379 -6383 -6384 -6389 -6395 -6509 -6559 -6653 -6756 -6979 -7010 -7136 -7307 -8209 -8211 -8215 -8218 -8235 -8248 0
-33 -34 -35 -37 -38 -39 -45 -51 -106 -118 -119 -122 -177 -179 -181 -182 -186 -187 -192 -220 -338 -561 -590 -725 -826 -885 -1974 -2157 -2215 -2248 -2250 -2252 -2253 -2942 -2949 -2973 -2974 -2975 -3138 -3170 -3172 -3173 -3184 -3396 -3499 -3722 -3753 -3879 -4249 -4320 -4321 -4324 -4330 -4352 -4354 -4357 -4358 -4359 -4360 -4364 -5006 -5007 -5008 -5038 -5039 -5040 -5049 -5056 -5171 -5466 -5600 -5608 -5631 -5632 -5633 -5635 -5636 -5638 -5639 -5765 -5789 -5828 -5999 -6000 -6008 -6029 -6030 -6031 -6033 -6034 -6046 -6056 -6091 -6132 -6268 -6347 -6378 -6379 -6382 -6383 -6384 -6389 -6395 -6509 -6559 -6653 -6756 -6979 -7010 -7136 -7307 -8209 -8211 -8215 -8218 -8248 0
-33 -34 -35 -37 -39 -45 -51 -106 -118 -119 -122 -177 -179 -181 -182 -186 -187 -192 -220 -338 -561 -590 -725 -826 -885 -1974 -2157 -2215 -2248 -2250 -2252 -2253 -2942 -2949 -2973 -2974 -2975 -3138 -3170 -3172 -3184 -3396 -3499 -3722 -3753 -3879 -4249 -4320 -4321 -4324 -4330 -4352 -4354 -4357 -4358 -4360 -4364 -4370 -5006 -5007 -5008 -5038 -5039 -5040 -5049 -5056 -5171 -5466 -5600 -5608 -5631 -5632 -5633 -5635 -5638 -5639 -5666 -5729 -5765 -5789 -5828 -5999 -6000 -6008 -6029 -6030 -6031 -6033 -6034 -6046 -6056 -6091 -6132 -6268 -6347 -6378 -6379 -6383 -6384 -6389 -6390 -6395 -6509 -6559 -6653 -6756 -6979 -7010 -7136 -7307 -8207 -8209 -8211 -8215 -8218 -8248 0
-33 -34 -35 -37 -39 -51 -106 -118 -119 -122 -177 -179 -181 -182 -186 -187 -220 -338 -561 -590 -725 -826 -885 -1974 -2157 -2215 -2248 -2250 -2252 -2253 -2942 -2949 -2973 -2974 -3138 -3170 -3172 -3184 -3396 -3499 -3722 -3753 -3879 -4249 -4274 -4310 -4320 -4321 -4324 -4330 -4352 -4354 -4357 -4358 -4360 -4370 -5006 -5007 -5008 -5038 -5039 -5040 -5049 -5056 -5171 -5466 -5600 -5608 -5631 -5632 -5633 -5635 -5638 -5639 -5666 -5729 -5765 -5789 -5828 -5999 -6000 -6008 -6029 -6030 -6031 -6033 -6034 -6046 -6056 -6091 -6132 -6268 -6347 -6378 -6379 -6395 -6509 -6559 -6653 -6756 -6979 -7010 -7136 -7307 -8209 -8211 -8215 -8218 -8248 0
-2 -33 -34 -35 -37 -39 -51 -122 -128 -174 -175 -176 -177 -179 -181 -182 -186 -187 -220 -338 -561 -590 -725 -1974 -2221 -2245 -2246 -2247 -2248 -2250 -2252 -2253 -2938 -2949 -2972 -2973 -2974 -3170 -3184 -3396 -3499 -3722 -3753 -3879 -4249 -4274 -4310 -4320 -4324 -4330 -4352 -4354 -4357 -4358 -4360 -4370 -5003 -5004 -5005 -5006 -5007 -5008 -5037 -5038 -5039 -5040 -5049 -5056 -5171 -5466 -5600 -5608 -5630 -5632 -5635 -5638 -5639 -5666 -5729 -5999 -6000 -6008 -6029 -6030 -6031 -6033 -6034 -6046 -6056 -6091 -6132 -6268 -6347 -6352 -6353 -6376 -6377 -6378 -6379 -6395 -6509 -6559 -6653 -6756 -6979 -7010 -7136 -7307 -8209 -8211 -8215 -8218 -8232 -8248 0
-2 -33 -34 -35 -36 -37 -39 -51 -128 -174 -175 -176 -177 -179 -181 -182 -186 -187 -1974 -2221 -2245 -2246 -2247 -2248 -2250 -2252 -2253 -2938 -2949 -2970 -2972 -2973 -2974 -2984 -3169 -3170 -3184 -3396 -3499 -3722 -3753 -3879 -4249 -4274 -4310 -4320 -4324 -4330 -4352 -4353 -4354 -4357 -4358 -4360 -4370 -4390 -4501 -4710 -4738 -4861 -5003 -5004 -5005 -5006 -5007 -5008 -5037 -5038 -5039 -5040 -5042 -5049 -5056 -5171 -5466 -5608 -5630 -5632 -5635 -5638 -5639 -5666 -5729 -5999 -6000 -6008 -6028 -6029 -6030 -6031 -6033 -6034 -6046 -6056 -6091 -6132 -6268 -6347 -6352 -6353 -6376 -6377 -6378 -6379 -6395 -6509 -6559 -6653 -6756 -6979 -7010 -7136 -7307 -8211 -8215 -8218 -8232 -8238 -8245 -8248 0
-2 -33 -35 -36 -37 -39 -51 -120 -128 -174 -175 -176 -177 -179 -181 -182 -186 -187 -1974 -2216 -2221 -2245 -2246 -2247 -2248 -2250 -2252 -2253 -2938 -2941 -2945 -2949 -2970 -2972 -2973 -2974 -2984 -3169 -3184 -3396 -3499 -3722 -3753 -3879 -4249 -4274 -4310 -4320 -4324 -4330 -4352 -4357 -4358 -4360 -4370 -4390 -4501 -4710 -4738 -4861 -5003 -5004 -5005 -5006 -5007 -5008 -5015 -5037 -5038 -5039 -5040 -5042 -5049 -5056 -5171 -5466 -5608 -5630 -5632 -5635 -5638 -5639 -5666 -5729 -5999 -6000 -6008 -6028 -6029 -6030 -6031 -6033 -6034 -6046 -6056 -6091 -6132 -6268 -6347 -6352 -6353 -6376 -6377 -6379 -6395 -6509 -6559 -6653 -6756 -6979 -7010 -7136 -7307 -7835 -7994 -8211 -8215 -8218 -8232 -8238 -8245 -8248 0
-2 -33 -35 -36 -37 -39 -40 -51 -120 -128 -174 -175 -176 -177 -179 -181 -182 -186 -1974 -2216 -2221 -2245 -2246 -2247 -2248 -2250 -2252 -2253 -2938 -2941 -2945 -2970 -2972 -2973 -2974 -2984 -3169 -3184 -3396 -3499 -3722 -3753 -3879 -4249 -4274 -4310 -4320 -4352 -4355 -4356 -4357 -4358 -4360 -4370 -4390 -4501 -4710 -4738 -4861 -5003 -5004 -5005 -5007 -5008 -5037 -5038 -5039 -5040 -5048 -5049 -5056 -5171 -5466 -5630 -5632 -5634 -5635 -5637 -5638 -5666 -5729 -5999 -6000 -6028 -6029 -6030 -6031 -6032 -6033 -6046 -6056 -6091 -6132 -6268 -6352 -6353 -6376 -6377 -6379 -6395 -6509 -6559 -6653 -6756 -6979 -7010 -7136 -7307 -7390 -7461 -7587 -7677 -7787 -7835 -7994 -8206 -8218 -8232 -8238 -8245 -8248 0
